50 80
43 46
22 26
38 44
3 33
1 17
6 13
10 29
41 44
24 37
35 37
1 35
20 42
4 34
10 40
21 25
26 48
10 15
19 27
2 29
30 45
0 41
22 25
18 46
28 32
45 48
1 23
33 37
9 37
2 40
6 22
2 49
21 47
23 44
30 31
10 28
9 30
1 25
10 37
2 33
8 49
20 23
7 32
18 32
12 37
4 33
36 40
5 34
11 29
6 8
16 37
7 43
1 20
29 30
7 27
6 46
2 3
22 36
2 12
34 47
11 24
0 33
4 49
13 27
16 32
18 29
21 28
19 30
12 46
37 45
4 14
37 38
17 35
30 32
9 31
24 31
43 44
17 19
2 18
4 37
11 30
50
